data;

param num_top:=6;

#nodes and edges of the physical network
param n := 10;

set E := (1,2) (1,3) (1,7) (2,4) (2,7) (3,5) (4,8) (5,6) (5,7) (6,7) (6,9) (7,8) (7,9) (8,10) (9,10) ;

#nodes and edges of the virtual networks
set Nl[1] := 6 10 7 5 ;
set Nl[2] := 5 6 4 7 ;
set Nl[3] := 7 9 6 4 5 ;
set Nl[4] := 2 5 9 1 8 ;
set Nl[5] := 2 1 3 4 ;
set Nl[6] := 8 10 9 3 4 ;

set El[1] := (6,10) (7,10) (5,7) (5,6) ;
set El[2] := (5,6) (4,6) (4,7) (5,7) (4,5) (6,7) ;
set El[3] := (7,9) (6,9) (4,6) (4,5) (5,7) ;
set El[4] := (2,5) (5,9) (1,9) (1,8) (2,8) (5,8) (1,2) (2,9) (1,5) (8,9) ;
set El[5] := (1,2) (1,3) (3,4) (2,4) (2,3) (1,4) ;
set El[6] := (8,10) (9,10) (3,9) (3,4) (4,8) ;
